p tw 60 962
0 1
0 2
0 3
0 4
0 5
0 6
0 7
0 8
0 9
0 10
0 11
0 12
0 13
0 14
0 15
0 16
0 17
0 22
0 24
0 28
0 37
0 39
0 45
0 47
0 48
0 21
0 29
0 31
0 36
0 38
0 43
0 18
0 27
0 33
0 54
0 55
0 19
0 35
0 41
0 49
0 52
1 2
1 3
1 4
1 5
1 6
1 7
1 8
1 9
1 19
1 21
1 22
1 25
1 27
1 31
1 32
1 33
1 34
1 28
1 30
1 41
1 49
1 50
1 51
1 52
1 12
1 13
1 20
1 24
1 42
1 53
1 10
1 15
1 16
1 17
1 44
1 45
2 3
2 4
2 5
2 6
2 7
2 8
2 9
2 26
2 31
2 33
2 36
2 40
2 41
2 42
2 43
2 17
2 29
2 30
2 34
2 44
2 45
2 46
2 12
2 16
2 35
2 38
2 22
2 25
2 28
2 52
2 54
3 4
3 5
3 6
3 7
3 8
3 9
3 26
3 33
3 40
3 42
3 50
3 55
3 56
3 17
3 18
3 36
3 39
3 47
3 49
3 52
3 59
3 10
3 14
3 21
3 30
3 38
3 43
3 54
4 5
4 6
4 7
4 8
4 9
4 10
4 11
4 12
4 13
4 14
4 15
4 16
4 17
5 6
5 7
5 8
5 9
5 26
5 31
5 33
5 36
5 40
5 41
5 42
5 43
5 11
5 13
5 15
5 28
5 49
5 52
5 59
6 7
6 8
6 9
6 14
6 16
6 18
6 21
6 27
6 29
6 12
6 13
6 20
6 24
6 33
6 42
6 53
6 26
6 40
6 50
6 55
6 56
6 22
6 34
6 38
6 45
6 46
6 17
6 36
6 39
6 47
6 49
6 52
6 59
7 8
7 9
7 14
7 16
7 20
7 21
7 26
7 27
7 28
7 29
7 30
7 18
7 12
7 13
7 33
7 38
7 54
7 55
7 22
7 25
7 34
7 39
7 41
7 46
7 47
7 53
7 17
7 19
7 36
7 49
7 51
7 58
8 9
8 13
8 18
8 19
8 20
8 21
8 22
8 23
8 24
8 25
8 17
8 29
8 30
8 34
8 36
8 44
8 45
8 46
8 12
8 33
8 42
8 53
8 26
8 40
8 50
8 55
8 56
8 38
8 54
9 12
9 16
9 17
9 33
9 35
9 38
9 40
9 42
9 14
9 18
9 21
9 27
9 29
9 15
9 44
9 46
9 47
9 48
9 56
10 11
10 12
10 13
10 14
10 15
10 16
10 17
10 26
10 30
10 34
10 35
10 36
10 37
10 38
10 39
10 21
10 28
10 29
10 31
10 43
10 27
10 44
10 45
10 51
10 22
10 32
10 40
10 46
10 47
10 50
10 54
10 59
11 12
11 13
11 14
11 15
11 16
11 17
11 22
11 28
11 32
11 40
11 43
11 46
11 47
11 42
11 49
11 52
11 59
12 13
12 14
12 15
12 16
12 17
12 33
12 35
12 38
12 40
12 42
12 20
12 24
12 53
12 18
12 22
12 29
12 34
12 45
12 46
12 54
12 55
12 26
12 28
12 36
12 48
12 57
12 58
13 14
13 15
13 16
13 17
13 18
13 19
13 20
13 21
13 22
13 23
13 24
13 25
13 33
13 42
13 53
13 38
13 54
13 55
13 28
13 32
13 40
13 43
13 46
13 47
13 49
13 52
13 59
14 15
14 16
14 17
14 20
14 21
14 26
14 27
14 28
14 29
14 30
14 34
14 35
14 36
14 37
14 38
14 39
14 18
14 43
14 50
14 54
14 59
15 16
15 17
15 22
15 24
15 28
15 37
15 39
15 45
15 47
15 48
15 18
15 21
15 35
15 44
15 46
15 56
15 27
15 30
15 51
15 40
15 42
15 49
15 52
15 59
16 17
16 20
16 21
16 26
16 27
16 28
16 29
16 30
16 33
16 35
16 38
16 40
16 42
16 22
16 23
16 41
16 45
16 46
16 49
16 53
16 18
16 44
16 51
17 29
17 30
17 34
17 36
17 44
17 45
17 46
17 33
17 35
17 38
17 40
17 42
17 27
17 51
17 18
17 19
17 24
17 41
17 49
17 52
17 39
17 47
17 59
17 22
17 55
17 58
18 19
18 20
18 21
18 22
18 23
18 24
18 25
18 27
18 29
18 34
18 38
18 45
18 46
18 53
18 33
18 54
18 55
18 35
18 44
18 47
18 48
18 56
18 26
18 28
18 36
18 42
18 57
18 58
18 41
18 49
18 52
18 39
18 59
19 20
19 21
19 22
19 23
19 24
19 25
19 27
19 31
19 32
19 33
19 34
19 26
19 35
19 36
19 38
19 39
19 40
19 45
19 49
19 50
19 41
19 52
19 51
19 55
19 58
20 21
20 22
20 23
20 24
20 25
20 26
20 27
20 28
20 29
20 30
20 40
20 41
20 45
20 46
20 49
20 53
20 33
20 42
21 22
21 23
21 24
21 25
21 26
21 27
21 28
21 29
21 30
21 31
21 32
21 33
21 34
21 36
21 38
21 39
21 43
21 35
21 44
21 46
21 47
21 48
21 56
21 50
21 54
21 59
22 23
22 24
22 25
22 27
22 31
22 32
22 33
22 34
22 28
22 37
22 39
22 45
22 47
22 48
22 40
22 41
22 46
22 49
22 53
22 26
22 42
22 44
22 52
22 54
22 29
22 38
22 43
22 55
22 36
22 51
22 58
23 24
23 25
23 40
23 41
23 45
23 46
23 49
23 53
24 25
24 28
24 37
24 39
24 45
24 47
24 48
24 33
24 42
24 53
24 35
24 41
24 49
24 52
25 27
25 31
25 32
25 33
25 34
25 26
25 28
25 41
25 42
25 44
25 52
25 54
25 39
25 46
25 47
25 53
25 55
26 27
26 28
26 29
26 30
26 34
26 35
26 36
26 37
26 38
26 39
26 31
26 33
26 40
26 41
26 42
26 43
26 45
26 49
26 50
26 44
26 52
26 54
26 55
26 56
26 48
26 57
26 58
27 28
27 29
27 30
27 31
27 32
27 33
27 34
27 44
27 45
27 51
28 29
28 30
28 37
28 39
28 45
28 47
28 48
28 31
28 36
28 38
28 43
28 33
28 34
28 41
28 49
28 50
28 51
28 52
28 42
28 44
28 54
28 32
28 40
28 46
28 57
28 58
28 59
29 30
29 34
29 36
29 44
29 45
29 46
29 31
29 38
29 39
29 43
29 53
29 42
29 48
29 57
29 58
30 34
30 35
30 36
30 37
30 38
30 39
30 44
30 45
30 46
30 33
30 41
30 49
30 50
30 51
30 52
30 43
30 54
30 59
31 32
31 33
31 34
31 36
31 40
31 41
31 42
31 43
31 38
31 39
32 33
32 34
32 40
32 43
32 46
32 47
33 34
33 36
33 40
33 41
33 42
33 43
33 35
33 38
33 49
33 50
33 51
33 52
33 53
33 55
33 56
33 54
33 58
34 35
34 36
34 37
34 38
34 39
34 44
34 45
34 46
34 41
34 49
34 50
34 51
34 52
34 53
34 47
34 55
35 36
35 37
35 38
35 39
35 40
35 42
35 45
35 49
35 50
35 44
35 46
35 47
35 48
35 56
35 41
35 52
36 37
36 38
36 39
36 40
36 41
36 42
36 43
36 44
36 45
36 46
36 49
36 50
36 48
36 57
36 58
36 47
36 52
36 59
36 51
36 55
37 38
37 39
37 45
37 47
37 48
38 39
38 40
38 42
38 43
38 45
38 49
38 50
38 46
38 53
38 54
38 55
38 59
39 45
39 47
39 48
39 43
39 40
39 49
39 50
39 41
39 46
39 53
39 55
39 52
39 59
40 41
40 42
40 43
40 45
40 46
40 49
40 53
40 50
40 55
40 56
40 47
40 52
40 59
41 42
41 43
41 49
41 50
41 51
41 52
41 45
41 46
41 53
41 44
41 54
41 47
41 55
42 43
42 53
42 44
42 52
42 54
42 50
42 55
42 56
42 48
42 57
42 58
42 49
42 59
43 46
43 47
43 50
43 54
43 59
44 45
44 46
44 52
44 54
44 47
44 48
44 56
44 51
45 46
45 47
45 48
45 49
45 53
45 50
45 51
45 52
46 49
46 53
46 47
46 48
46 56
46 55
47 48
47 56
47 53
47 55
47 49
47 52
47 59
48 56
48 57
48 58
49 50
49 51
49 52
49 53
49 59
49 55
49 58
50 51
50 52
50 55
50 56
50 54
50 59
51 52
51 55
51 58
52 54
52 59
53 55
54 55
54 59
55 56
55 58
57 58
